(declare-sort Loc 0)
(declare-const f1_0_main_Load Loc)
(declare-const f5469_0_main_GE Loc)
(declare-const f5912_0_main_GE Loc)
(declare-const f88_0__init__Return Loc)
(declare-const f439_0_example_LT Loc)
(declare-const f1266_0_example_GE Loc)
(declare-const f1266_0_example_GE' Loc)
(declare-const f1723_0_example_LT Loc)
(declare-const f1738_0_example_GE Loc)
(declare-const f319_0__init__GE Loc)
(declare-const f621_0__init__GE Loc)
(declare-const f660_0_init_GE Loc)
(declare-const f5979_0_dijkstra_GE Loc)
(declare-const f8157_0_dijkstra_GE Loc)
(declare-const f8426_0_dijkstra_GE Loc)
(declare-const f8607_0_dijkstra_GE Loc)
(declare-const f9681_0_dijkstra_GE Loc)
(declare-const f10401_0_relax_ArrayAccess Loc)
(declare-const f3087_0_init_GE Loc)
(declare-const f6985_0_bellmanFord_GE Loc)
(declare-const f7737_0_bellmanFord_GE Loc)
(declare-const f8204_0_bellmanFord_GE Loc)
(declare-const f8283_0_bellmanFord_GE Loc)
(declare-const f8557_0_bellmanFord_ArrayAccess Loc)
(declare-const f8819_0_bellmanFord_GE Loc)
(declare-const f9974_0_relax_ArrayAccess Loc)
(declare-const __init Loc)
(assert (distinct f1_0_main_Load f5469_0_main_GE f5912_0_main_GE f88_0__init__Return f439_0_example_LT f1266_0_example_GE f1266_0_example_GE' f1723_0_example_LT f1738_0_example_GE f319_0__init__GE f621_0__init__GE f660_0_init_GE f5979_0_dijkstra_GE f8157_0_dijkstra_GE f8426_0_dijkstra_GE f8607_0_dijkstra_GE f9681_0_dijkstra_GE f10401_0_relax_ArrayAccess f3087_0_init_GE f6985_0_bellmanFord_GE f7737_0_bellmanFord_GE f8204_0_bellmanFord_GE f8283_0_bellmanFord_GE f8557_0_bellmanFord_ArrayAccess f8819_0_bellmanFord_GE f9974_0_relax_ArrayAccess __init ))

(define-fun cfg_init ( (pc Loc) (src Loc) (rel Bool) ) Bool
  (and (= pc src) rel))

(define-fun cfg_trans2 ( (pc Loc) (src Loc)
                         (pc1 Loc) (dst Loc)
                         (rel Bool) ) Bool
  (and (= pc src) (= pc1 dst) rel))

(define-fun cfg_trans3 ( (pc Loc) (exit Loc)
                         (pc1 Loc) (call Loc)
                         (pc2 Loc) (return Loc)
                         (rel Bool) ) Bool
  (and (= pc exit) (= pc1 call) (= pc2 return) rel))

(define-fun init_main ( (pc Loc) (arg1 Int) (arg2 Int) (arg3 Int) (arg4 Int) (arg5 Int) (arg6 Int) ) Bool
  (cfg_init pc __init true))

(define-fun next_main (
                 (pc Loc) (arg1 Int) (arg2 Int) (arg3 Int) (arg4 Int) (arg5 Int) (arg6 Int)
                 (pc1 Loc) (arg1P Int) (arg2P Int) (arg3P Int) (arg4P Int) (arg5P Int) (arg6P Int)
             ) Bool
  (or
    (cfg_trans2 pc f1_0_main_Load pc1 f5469_0_main_GE (and (and (and (and (and (<= (- arg1P 2) arg1) (> arg2 (- 1))) (> arg1 0)) (> arg1P 2)) (= 0 arg2P)) (= arg2 arg3P)))
    (cfg_trans2 pc f5469_0_main_GE pc1 f5912_0_main_GE (and (and (and (and (and (and (<= arg3 arg2) (> arg3 (- 1))) (<= arg1P arg1)) (> arg1 2)) (> arg1P 2)) (= 0 arg2P)) (= arg3 arg3P)))
    (cfg_trans2 pc f5469_0_main_GE pc1 f5469_0_main_GE (and (and (and (and (and (> arg3P (- 1)) (> arg3 arg2)) (>= arg1 arg1P)) (> arg1 2)) (> arg1P 2)) (= (+ arg2 1) arg2P)))
    (cfg_trans2 pc f5469_0_main_GE pc1 f5469_0_main_GE (and (and (and (and (and (and (> arg3 (- 1)) (> arg3 arg2)) (<= arg1P arg1)) (> arg1 2)) (> arg1P 2)) (= (+ arg2 1) arg2P)) (= arg3 arg3P)))
    (cfg_trans2 pc f5912_0_main_GE pc1 f5912_0_main_GE (and (and (and (and (and (and (> arg3 arg2) (> arg3 0)) (<= arg1P arg1)) (> arg1 2)) (> arg1P 2)) (= (+ arg2 1) arg2P)) (= arg3 arg3P)))
    (cfg_trans2 pc f5912_0_main_GE pc1 f5912_0_main_GE (and (and (and (and (and (and (> arg3 0) (> arg3 arg2)) (> arg3P (- 1))) (<= arg1P arg1)) (> arg1 2)) (> arg1P 2)) (= (+ arg2 1) arg2P)))
    (cfg_trans2 pc f88_0__init__Return pc1 f439_0_example_LT (and (> arg1P 2) (= 0 arg2P)))
    (cfg_trans2 pc f1_0_main_Load pc1 f439_0_example_LT (and (and (and (and (<= (- arg1P 2) arg1) (> arg2 (- 1))) (> arg1 0)) (> arg1P 2)) (= arg2 arg2P)))
    (cfg_trans2 pc f439_0_example_LT pc1 f1266_0_example_GE (and (and (and (and (and (and (and (< (- arg2 1) arg2) (> arg2 1)) (< (- arg2 2) arg2)) (<= arg1P arg1)) (> arg1 2)) (> arg1P 2)) (= 0 arg2P)) (= arg2 arg3P)))
    (cfg_trans2 pc f1266_0_example_GE pc1 f1266_0_example_GE' (exists ((x378 Int) (x379 Int)) (and (and (and (and (and (and (and (and (and (= (- arg2 (* 2 x378)) 0) (> arg3 arg2)) (<= arg3 (+ arg2 1))) (> arg2 (- 1))) (<= x379 arg1)) (> arg1 2)) (> x379 2)) (= arg1 arg1P)) (= arg2 arg2P)) (= arg3 arg3P))))
    (cfg_trans2 pc f1266_0_example_GE' pc1 f1723_0_example_LT (exists ((x384 Int)) (and (and (and (and (and (and (and (and (and (and (= (- arg2 (* 2 x384)) 0) (> arg3 arg2)) (<= arg3 (+ arg2 1))) (> arg2 (- 1))) (<= arg1P arg1)) (> arg1 2)) (> arg1P 2)) (< (- arg2 (* 2 x384)) 2)) (>= (- arg2 (* 2 x384)) 0)) (= arg2 arg2P)) (= arg3 arg3P))))
    (cfg_trans2 pc f1266_0_example_GE pc1 f1266_0_example_GE' (exists ((x388 Int) (x389 Int) (x390 Int)) (and (and (and (and (and (and (and (and (and (and (and (> arg2 (- 1)) (> arg3 (+ arg2 1))) (= (- arg2 (* 2 x388)) 0)) (> arg3 (- 1))) (> x389 (+ arg2 1))) (> x389 (- 1))) (<= x390 arg1)) (> arg1 2)) (> x390 2)) (= arg1 arg1P)) (= arg2 arg2P)) (= arg3 arg3P))))
    (cfg_trans2 pc f1266_0_example_GE' pc1 f1723_0_example_LT (exists ((x395 Int) (x396 Int)) (and (and (and (and (and (and (and (and (and (and (and (and (> arg2 (- 1)) (> arg3 (+ arg2 1))) (= (- arg2 (* 2 x395)) 0)) (> arg3 (- 1))) (> x396 (+ arg2 1))) (> x396 (- 1))) (<= arg1P arg1)) (> arg1 2)) (> arg1P 2)) (< (- arg2 (* 2 x395)) 2)) (>= (- arg2 (* 2 x395)) 0)) (= arg2 arg2P)) (= arg3 arg3P))))
    (cfg_trans2 pc f1266_0_example_GE pc1 f1266_0_example_GE' (exists ((x400 Int) (x401 Int)) (and (and (and (and (and (and (and (and (and (= (- arg2 (* 2 x400)) 1) (> arg3 arg2)) (> arg2 (- 1))) (<= arg3 (+ arg2 1))) (<= x401 arg1)) (> arg1 2)) (> x401 2)) (= arg1 arg1P)) (= arg2 arg2P)) (= arg3 arg3P))))
    (cfg_trans2 pc f1266_0_example_GE' pc1 f1738_0_example_GE (exists ((x406 Int)) (and (and (and (and (and (and (and (and (and (and (and (= (- arg2 (* 2 x406)) 1) (> arg3 arg2)) (> arg2 (- 1))) (<= arg3 (+ arg2 1))) (<= arg1P arg1)) (> arg1 2)) (> arg1P 2)) (< (- arg2 (* 2 x406)) 2)) (>= (- arg2 (* 2 x406)) 0)) (= arg2 arg2P)) (= (+ arg2 2) arg3P)) (= arg3 arg4P))))
    (cfg_trans2 pc f1266_0_example_GE pc1 f1266_0_example_GE' (exists ((x410 Int) (x411 Int) (x412 Int)) (and (and (and (and (and (and (and (and (and (and (and (> arg2 (- 1)) (> arg3 (+ arg2 1))) (= (- arg2 (* 2 x410)) 1)) (> arg3 (- 1))) (> x411 (+ arg2 1))) (> x411 (- 1))) (<= x412 arg1)) (> arg1 2)) (> x412 2)) (= arg1 arg1P)) (= arg2 arg2P)) (= arg3 arg3P))))
    (cfg_trans2 pc f1266_0_example_GE' pc1 f1738_0_example_GE (exists ((x417 Int) (x418 Int)) (and (and (and (and (and (and (and (and (and (and (and (and (and (> arg2 (- 1)) (> arg3 (+ arg2 1))) (= (- arg2 (* 2 x417)) 1)) (> arg3 (- 1))) (> x418 (+ arg2 1))) (> x418 (- 1))) (<= arg1P arg1)) (> arg1 2)) (> arg1P 2)) (< (- arg2 (* 2 x417)) 2)) (>= (- arg2 (* 2 x417)) 0)) (= arg2 arg2P)) (= (+ arg2 2) arg3P)) (= arg3 arg4P))))
    (cfg_trans2 pc f1723_0_example_LT pc1 f1266_0_example_GE (and (and (and (and (and (<= arg1P arg1) (< arg2 2)) (> arg1 2)) (> arg1P 2)) (= (+ arg2 1) arg2P)) (= arg3 arg3P)))
    (cfg_trans2 pc f1738_0_example_GE pc1 f1266_0_example_GE (and (and (and (and (and (<= arg1P arg1) (<= arg4 arg3)) (> arg1 2)) (> arg1P 2)) (= (+ arg2 1) arg2P)) (= arg4 arg3P)))
    (cfg_trans2 pc f1738_0_example_GE pc1 f1266_0_example_GE (and (and (and (and (and (and (and (and (and (> arg4 arg3) (> arg2 (- 1))) (> arg4 arg2)) (> arg4 (- 1))) (<= arg4 (+ arg2 2))) (<= arg1P arg1)) (> arg1 2)) (> arg1P 2)) (= (+ arg2 1) arg2P)) (= arg4 arg3P)))
    (cfg_trans2 pc f1738_0_example_GE pc1 f1266_0_example_GE (exists ((x69 Int)) (and (and (and (and (and (and (and (and (and (and (> arg4 (+ arg2 2)) (> arg2 (- 1))) (> arg4 arg3)) (> arg4 (- 1))) (> x69 (+ arg2 2))) (> x69 (- 1))) (<= arg1P arg1)) (> arg1 2)) (> arg1P 2)) (= (+ arg2 1) arg2P)) (= arg4 arg3P))))
    (cfg_trans2 pc f1723_0_example_LT pc1 f1266_0_example_GE (and (and (and (and (and (and (and (and (< (- arg2 2) arg3) (> arg2 1)) (>= arg2 arg3)) (> arg3 (- 1))) (<= arg1P arg1)) (> arg1 2)) (> arg1P 2)) (= (+ arg2 1) arg2P)) (= arg3 arg3P)))
    (cfg_trans2 pc f1723_0_example_LT pc1 f1266_0_example_GE (exists ((x78 Int)) (and (and (and (and (and (and (and (and (and (and (< (- arg2 2) arg3) (> arg2 1)) (> arg3 (- 1))) (< arg2 arg3)) (> x78 (- arg2 2))) (> x78 (- 1))) (<= arg1P arg1)) (> arg1 2)) (> arg1P 2)) (= (+ arg2 1) arg2P)) (= arg3 arg3P))))
    (cfg_trans2 pc f1_0_main_Load pc1 f319_0__init__GE (and (and (and (and (and (<= (- arg1P 2) arg1) (> arg2 (- 1))) (> arg1 0)) (> arg1P 2)) (= 0 arg2P)) (= arg2 arg3P)))
    (cfg_trans2 pc f319_0__init__GE pc1 f621_0__init__GE (and (and (and (and (and (and (and (> arg3 arg2) (> arg3 (- 1))) (<= arg1P arg1)) (> arg1 2)) (> arg1P 2)) (= arg2 arg2P)) (= 0 arg3P)) (= arg3 arg4P)))
    (cfg_trans2 pc f319_0__init__GE pc1 f660_0_init_GE (and (and (and (and (and (and (<= arg3 arg2) (> arg3 (- 1))) (<= arg1P arg1)) (> arg1 2)) (> arg1P 2)) (= 0 arg2P)) (= arg3 arg3P)))
    (cfg_trans2 pc f621_0__init__GE pc1 f319_0__init__GE (and (and (and (and (and (and (> arg4 (- 1)) (<= arg4 arg3)) (<= arg1P arg1)) (> arg1 2)) (> arg1P 2)) (= (+ arg2 1) arg2P)) (= arg4 arg3P)))
    (cfg_trans2 pc f621_0__init__GE pc1 f621_0__init__GE (exists ((x100 Int)) (and (and (and (and (and (and (and (and (and (and (> arg4 arg3) (> arg4 arg2)) (> x100 (- 1))) (> arg4 (- 1))) (< arg3 x100)) (<= arg1P arg1)) (> arg1 2)) (> arg1P 2)) (= arg2 arg2P)) (= (+ arg3 1) arg3P)) (= arg4 arg4P))))
    (cfg_trans2 pc f660_0_init_GE pc1 f660_0_init_GE (and (and (and (and (and (and (> arg3 (- 1)) (> arg3 arg2)) (<= arg1P arg1)) (> arg1 2)) (> arg1P 2)) (= (+ arg2 1) arg2P)) (= arg3 arg3P)))
    (cfg_trans2 pc f5469_0_main_GE pc1 f5979_0_dijkstra_GE (and (and (and (and (and (and (and (and (and (and (> arg3 arg2) (> arg3 0)) (> arg2 (- 1))) (> arg4P arg2)) (> arg4P (- 1))) (<= arg1P arg1)) (<= (+ arg2P 2) arg1)) (> arg1 2)) (> arg1P 2)) (> arg2P 0)) (= 0 arg3P)))
    (cfg_trans2 pc f5979_0_dijkstra_GE pc1 f5979_0_dijkstra_GE (and (and (and (and (and (and (and (and (and (and (and (> arg4 (- 1)) (> arg4 arg3)) (<= arg1P arg1)) (<= (- arg1P 2) arg2)) (<= (+ arg2P 2) arg1)) (<= arg2P arg2)) (> arg1 2)) (> arg2 0)) (> arg1P 2)) (> arg2P 0)) (= (+ arg3 1) arg3P)) (= arg4 arg4P)))
    (cfg_trans2 pc f5979_0_dijkstra_GE pc1 f8157_0_dijkstra_GE (and (and (and (and (and (and (and (and (and (and (and (<= arg4 arg3) (> arg4 (- 1))) (<= arg1P arg1)) (<= (- arg1P 2) arg2)) (<= (+ arg2P 2) arg1)) (<= arg2P arg2)) (> arg1 2)) (> arg2 0)) (> arg1P 2)) (> arg2P 0)) (= 0 arg3P)) (= arg4 arg4P)))
    (cfg_trans2 pc f8157_0_dijkstra_GE pc1 f8426_0_dijkstra_GE (and (and (and (and (and (and (and (and (and (and (and (and (> arg4 arg3) (> arg4 (- 1))) (<= arg1P arg1)) (<= (- arg1P 2) arg2)) (<= (+ arg2P 2) arg1)) (<= arg2P arg2)) (> arg1 2)) (> arg2 0)) (> arg1P 2)) (> arg2P 0)) (= arg3 arg3P)) (= 0 arg4P)) (= arg4 arg5P)))
    (cfg_trans2 pc f8426_0_dijkstra_GE pc1 f8426_0_dijkstra_GE (and (and (and (and (and (and (and (and (and (and (and (and (> arg5 (- 1)) (> arg5 arg4)) (<= arg1P arg1)) (<= (- arg1P 2) arg2)) (<= (+ arg2P 2) arg1)) (<= arg2P arg2)) (> arg1 2)) (> arg2 0)) (> arg1P 2)) (> arg2P 0)) (= arg3 arg3P)) (= (+ arg4 1) arg4P)) (= arg5 arg5P)))
    (cfg_trans2 pc f8426_0_dijkstra_GE pc1 f8607_0_dijkstra_GE (and (and (and (and (and (and (and (and (and (and (and (and (and (and (> arg5 (- 1)) (> arg4 (- 1))) (<= arg5 arg4)) (<= arg1P arg1)) (<= (- arg1P 2) arg2)) (<= (+ arg2P 2) arg1)) (<= arg2P arg2)) (> arg1 2)) (> arg2 0)) (> arg1P 2)) (> arg2P 0)) (= arg3 arg3P)) (= arg4 arg4P)) (= (+ arg4 1) arg5P)) (= arg5 arg6P)))
    (cfg_trans2 pc f8426_0_dijkstra_GE pc1 f8607_0_dijkstra_GE (exists ((x150 Int)) (and (and (and (and (and (and (and (and (and (and (and (and (and (and (and (> arg4 (- 1)) (> arg5 arg4)) (> arg5 (- 1))) (< x150 0)) (<= arg1P arg1)) (<= (- arg1P 2) arg2)) (<= (+ arg2P 2) arg1)) (<= arg2P arg2)) (> arg1 2)) (> arg2 0)) (> arg1P 2)) (> arg2P 0)) (= arg3 arg3P)) (= arg4 arg4P)) (= (+ arg4 1) arg5P)) (= arg5 arg6P))))
    (cfg_trans2 pc f8426_0_dijkstra_GE pc1 f8607_0_dijkstra_GE (exists ((x426 Int)) (and (and (and (and (and (and (and (and (and (and (and (and (and (and (and (> arg4 (- 1)) (> arg5 arg4)) (> arg5 (- 1))) (> x426 0)) (<= arg1P arg1)) (<= (- arg1P 2) arg2)) (<= (+ arg2P 2) arg1)) (<= arg2P arg2)) (> arg1 2)) (> arg2 0)) (> arg1P 2)) (> arg2P 0)) (= arg3 arg3P)) (= arg4 arg4P)) (= (+ arg4 1) arg5P)) (= arg5 arg6P))))
    (cfg_trans2 pc f8607_0_dijkstra_GE pc1 f8607_0_dijkstra_GE (and (and (and (and (and (and (and (and (and (and (and (and (and (> arg6 (- 1)) (> arg6 arg5)) (<= arg1P arg1)) (<= (- arg1P 2) arg2)) (<= (+ arg2P 2) arg1)) (<= arg2P arg2)) (> arg1 2)) (> arg2 0)) (> arg1P 2)) (> arg2P 0)) (= arg3 arg3P)) (= arg4 arg4P)) (= (+ arg5 1) arg5P)) (= arg6 arg6P)))
    (cfg_trans2 pc f8607_0_dijkstra_GE pc1 f8607_0_dijkstra_GE (exists ((x167 Int)) (and (and (and (and (and (and (and (and (and (and (and (and (and (and (< x167 0) (> arg6 arg5)) (> arg6 (- 1))) (<= arg1P arg1)) (<= (- arg1P 2) arg2)) (<= (+ arg2P 2) arg1)) (<= arg2P arg2)) (> arg1 2)) (> arg2 0)) (> arg1P 2)) (> arg2P 0)) (= arg3 arg3P)) (= arg4 arg4P)) (= (+ arg5 1) arg5P)) (= arg6 arg6P))))
    (cfg_trans2 pc f8607_0_dijkstra_GE pc1 f8607_0_dijkstra_GE (exists ((x435 Int)) (and (and (and (and (and (and (and (and (and (and (and (and (and (and (> x435 0) (> arg6 arg5)) (> arg6 (- 1))) (<= arg1P arg1)) (<= (- arg1P 2) arg2)) (<= (+ arg2P 2) arg1)) (<= arg2P arg2)) (> arg1 2)) (> arg2 0)) (> arg1P 2)) (> arg2P 0)) (= arg3 arg3P)) (= arg4 arg4P)) (= (+ arg5 1) arg5P)) (= arg6 arg6P))))
    (cfg_trans2 pc f8607_0_dijkstra_GE pc1 f8607_0_dijkstra_GE (exists ((x176 Int)) (and (and (and (and (and (and (and (and (and (and (and (and (and (and (and (< x176 0) (> arg6 arg5)) (> arg6 arg4)) (> arg6 (- 1))) (<= arg1P arg1)) (<= (- arg1P 2) arg2)) (<= (+ arg2P 2) arg1)) (<= arg2P arg2)) (> arg1 2)) (> arg2 0)) (> arg1P 2)) (> arg2P 0)) (= arg3 arg3P)) (= arg4 arg4P)) (= (+ arg5 1) arg5P)) (= arg6 arg6P))))
    (cfg_trans2 pc f8607_0_dijkstra_GE pc1 f8607_0_dijkstra_GE (exists ((x444 Int)) (and (and (and (and (and (and (and (and (and (and (and (and (and (and (and (> x444 0) (> arg6 arg5)) (> arg6 arg4)) (> arg6 (- 1))) (<= arg1P arg1)) (<= (- arg1P 2) arg2)) (<= (+ arg2P 2) arg1)) (<= arg2P arg2)) (> arg1 2)) (> arg2 0)) (> arg1P 2)) (> arg2P 0)) (= arg3 arg3P)) (= arg4 arg4P)) (= (+ arg5 1) arg5P)) (= arg6 arg6P))))
    (cfg_trans2 pc f8607_0_dijkstra_GE pc1 f8607_0_dijkstra_GE (exists ((x185 Int)) (and (and (and (and (and (and (and (and (and (and (and (and (and (and (and (< x185 0) (> arg6 arg5)) (> arg6 (- 1))) (> arg6 arg4)) (<= arg1P arg1)) (<= (- arg1P 2) arg2)) (<= (+ arg2P 2) arg1)) (<= arg2P arg2)) (> arg1 2)) (> arg2 0)) (> arg1P 2)) (> arg2P 0)) (= arg3 arg3P)) (= arg5 arg4P)) (= (+ arg5 1) arg5P)) (= arg6 arg6P))))
    (cfg_trans2 pc f8607_0_dijkstra_GE pc1 f8607_0_dijkstra_GE (exists ((x453 Int)) (and (and (and (and (and (and (and (and (and (and (and (and (and (and (and (> x453 0) (> arg6 arg5)) (> arg6 (- 1))) (> arg6 arg4)) (<= arg1P arg1)) (<= (- arg1P 2) arg2)) (<= (+ arg2P 2) arg1)) (<= arg2P arg2)) (> arg1 2)) (> arg2 0)) (> arg1P 2)) (> arg2P 0)) (= arg3 arg3P)) (= arg5 arg4P)) (= (+ arg5 1) arg5P)) (= arg6 arg6P))))
    (cfg_trans2 pc f8607_0_dijkstra_GE pc1 f8607_0_dijkstra_GE (exists ((x194 Int)) (and (and (and (and (and (and (and (and (and (and (and (and (and (and (and (< x194 0) (> arg6 arg5)) (> arg6 arg4)) (> arg6 (- 1))) (<= arg1P arg1)) (<= (- arg1P 2) arg2)) (<= (+ arg2P 2) arg1)) (<= arg2P arg2)) (> arg1 2)) (> arg2 0)) (> arg1P 2)) (> arg2P 0)) (= arg3 arg3P)) (= arg5 arg4P)) (= (+ arg5 1) arg5P)) (= arg6 arg6P))))
    (cfg_trans2 pc f8607_0_dijkstra_GE pc1 f8607_0_dijkstra_GE (exists ((x462 Int)) (and (and (and (and (and (and (and (and (and (and (and (and (and (and (and (> x462 0) (> arg6 arg5)) (> arg6 arg4)) (> arg6 (- 1))) (<= arg1P arg1)) (<= (- arg1P 2) arg2)) (<= (+ arg2P 2) arg1)) (<= arg2P arg2)) (> arg1 2)) (> arg2 0)) (> arg1P 2)) (> arg2P 0)) (= arg3 arg3P)) (= arg5 arg4P)) (= (+ arg5 1) arg5P)) (= arg6 arg6P))))
    (cfg_trans2 pc f8607_0_dijkstra_GE pc1 f9681_0_dijkstra_GE (and (and (and (and (and (and (and (and (and (and (and (and (and (and (> arg6 (- 1)) (> arg6 arg4)) (<= arg6 arg5)) (<= arg1P arg1)) (<= (- arg1P 2) arg2)) (<= (+ arg2P 2) arg1)) (<= arg2P arg2)) (> arg1 2)) (> arg2 0)) (> arg1P 2)) (> arg2P 0)) (= arg3 arg3P)) (= arg4 arg4P)) (= 0 arg5P)) (= arg6 arg6P)))
    (cfg_trans2 pc f9681_0_dijkstra_GE pc1 f8157_0_dijkstra_GE (and (and (and (and (and (and (and (and (and (and (and (> arg6 (- 1)) (<= arg6 arg5)) (<= arg1P arg1)) (<= (- arg1P 2) arg2)) (<= (+ arg2P 2) arg1)) (<= arg2P arg2)) (> arg1 2)) (> arg2 0)) (> arg1P 2)) (> arg2P 0)) (= (+ arg3 1) arg3P)) (= arg6 arg4P)))
    (cfg_trans2 pc f9681_0_dijkstra_GE pc1 f10401_0_relax_ArrayAccess (exists ((x218 Int) (x219 Int)) (and (and (and (and (and (and (and (and (and (and (and (and (and (and (> arg6 arg5) (> arg6 arg4)) (> x218 (- 1))) (> x218 arg5)) (> x219 (- 1))) (> x219 arg5)) (<= arg2P arg1)) (<= (- arg2P 2) arg2)) (> arg1 2)) (> arg2 0)) (> arg2P 2)) (= arg3 arg1P)) (= arg4 arg3P)) (= arg5 arg4P)) (= arg6 arg5P))))
    (cfg_trans2 pc f9681_0_dijkstra_GE pc1 f9681_0_dijkstra_GE (exists ((x228 Int)) (and (and (and (and (and (and (and (and (and (and (and (and (and (and (and (and (> arg6 arg5) (> arg6 arg4)) (> x228 (- 1))) (> arg6 (- 1))) (> x228 arg5)) (<= arg1P arg1)) (<= (- arg1P 2) arg2)) (<= (+ arg2P 2) arg1)) (<= arg2P arg2)) (> arg1 2)) (> arg2 0)) (> arg1P 2)) (> arg2P 0)) (= arg3 arg3P)) (= arg4 arg4P)) (= (+ arg5 1) arg5P)) (= arg6 arg6P))))
    (cfg_trans2 pc f9681_0_dijkstra_GE pc1 f9681_0_dijkstra_GE (exists ((x237 Int) (x238 Int)) (and (and (and (and (and (and (and (and (and (and (and (and (and (and (and (and (and (and (> arg6 arg5) (> arg6 arg4)) (> x237 (- 1))) (> x237 arg5)) (> x238 (- 1))) (> x238 arg5)) (> arg6 (- 1))) (<= arg1P arg1)) (<= (- arg1P 2) arg2)) (<= (+ arg2P 2) arg1)) (<= arg2P arg2)) (> arg1 2)) (> arg2 0)) (> arg1P 2)) (> arg2P 0)) (= arg3 arg3P)) (= arg4 arg4P)) (= (+ arg5 1) arg5P)) (= arg6 arg6P))))
    (cfg_trans2 pc f9681_0_dijkstra_GE pc1 f9681_0_dijkstra_GE (exists ((x247 Int)) (and (and (and (and (and (and (and (and (and (and (and (and (and (and (and (and (> arg6 arg5) (> arg6 arg4)) (> x247 (- 1))) (> x247 arg5)) (> arg6 (- 1))) (<= arg1P arg1)) (<= (- arg1P 2) arg2)) (<= (+ arg2P 2) arg1)) (<= arg2P arg2)) (> arg1 2)) (> arg2 0)) (> arg1P 2)) (> arg2P 0)) (= arg3 arg3P)) (= arg4 arg4P)) (= (+ arg5 1) arg5P)) (= arg6 arg6P))))
    (cfg_trans2 pc f10401_0_relax_ArrayAccess pc1 f9681_0_dijkstra_GE (and (and (and (and (and (and (and (and (and (and (> arg5 (- 1)) (> arg5 arg4)) (<= arg1P arg2)) (<= (+ arg2P 2) arg2)) (> arg2 2)) (> arg1P 2)) (> arg2P 0)) (= arg1 arg3P)) (= arg3 arg4P)) (= (+ arg4 1) arg5P)) (= arg5 arg6P)))
    (cfg_trans2 pc f5469_0_main_GE pc1 f3087_0_init_GE (and (and (and (and (and (and (and (> arg3 arg2) (> arg3 0)) (> arg2 (- 1))) (<= arg1P arg1)) (> arg1 2)) (> arg1P 2)) (= 0 arg2P)) (= arg3 arg3P)))
    (cfg_trans2 pc f3087_0_init_GE pc1 f3087_0_init_GE (and (and (and (and (and (and (> arg3 (- 1)) (> arg3 arg2)) (<= arg1P arg1)) (> arg1 2)) (> arg1P 2)) (= (+ arg2 1) arg2P)) (= arg3 arg3P)))
    (cfg_trans2 pc f5912_0_main_GE pc1 f3087_0_init_GE (and (and (and (and (and (and (and (> arg3 arg2) (> arg3 0)) (> arg2 (- 1))) (<= arg1P arg1)) (> arg1 2)) (> arg1P 2)) (= 0 arg2P)) (= arg3 arg3P)))
    (cfg_trans2 pc f5912_0_main_GE pc1 f6985_0_bellmanFord_GE (and (and (and (and (and (and (and (and (> arg3 arg2) (> arg3 0)) (> arg2 (- 1))) (> arg3P (- 1))) (> arg3P arg2)) (<= arg1P arg1)) (> arg1 2)) (> arg1P 2)) (= 1 arg2P)))
    (cfg_trans2 pc f6985_0_bellmanFord_GE pc1 f7737_0_bellmanFord_GE (and (and (and (and (and (and (<= arg3 arg2) (> arg3 (- 1))) (<= arg1P arg1)) (> arg1 2)) (> arg1P 2)) (= 0 arg2P)) (= arg3 arg3P)))
    (cfg_trans2 pc f6985_0_bellmanFord_GE pc1 f8204_0_bellmanFord_GE (and (and (and (and (and (and (and (> arg3 arg2) (> arg3 (- 1))) (<= arg1P arg1)) (> arg1 2)) (> arg1P 2)) (= arg2 arg2P)) (= 0 arg3P)) (= arg3 arg4P)))
    (cfg_trans2 pc f8204_0_bellmanFord_GE pc1 f6985_0_bellmanFord_GE (and (and (and (and (and (and (> arg4 (- 1)) (<= arg4 arg3)) (<= arg1P arg1)) (> arg1 2)) (> arg1P 2)) (= (+ arg2 1) arg2P)) (= arg4 arg3P)))
    (cfg_trans2 pc f7737_0_bellmanFord_GE pc1 f8283_0_bellmanFord_GE (and (and (and (and (and (and (and (> arg3 arg2) (> arg3 (- 1))) (<= arg1P arg1)) (> arg1 2)) (> arg1P 2)) (= arg2 arg2P)) (= 0 arg3P)) (= arg3 arg4P)))
    (cfg_trans2 pc f8283_0_bellmanFord_GE pc1 f7737_0_bellmanFord_GE (and (and (and (and (and (and (> arg4 (- 1)) (<= arg4 arg3)) (<= arg1P arg1)) (> arg1 2)) (> arg1P 2)) (= (+ arg2 1) arg2P)) (= arg4 arg3P)))
    (cfg_trans2 pc f8283_0_bellmanFord_GE pc1 f8557_0_bellmanFord_ArrayAccess (exists ((x300 Int)) (and (and (and (and (and (and (and (and (and (and (and (> arg4 arg3) (> arg4 arg2)) (> x300 (- 1))) (> x300 arg3)) (<= arg1P arg1)) (<= (+ arg3P 2) arg1)) (> arg1 2)) (> arg1P 2)) (> arg3P 0)) (= arg2 arg2P)) (= arg3 arg4P)) (= arg4 arg5P))))
    (cfg_trans2 pc f8204_0_bellmanFord_GE pc1 f8819_0_bellmanFord_GE (and (and (and (and (and (and (and (and (> arg4 arg3) (> arg4 (- 1))) (<= arg1P arg1)) (> arg1 2)) (> arg1P 2)) (= arg2 arg2P)) (= arg3 arg3P)) (= 0 arg4P)) (= arg4 arg5P)))
    (cfg_trans2 pc f8819_0_bellmanFord_GE pc1 f8204_0_bellmanFord_GE (and (and (and (and (and (and (and (> arg5 (- 1)) (<= arg5 arg4)) (<= arg1P arg1)) (> arg1 2)) (> arg1P 2)) (= arg2 arg2P)) (= (+ arg3 1) arg3P)) (= arg5 arg4P)))
    (cfg_trans2 pc f8283_0_bellmanFord_GE pc1 f8283_0_bellmanFord_GE (exists ((x317 Int)) (and (and (and (and (and (and (and (and (and (and (> arg4 arg3) (> arg4 arg2)) (> x317 (- 1))) (> arg4 (- 1))) (> x317 arg3)) (<= arg1P arg1)) (> arg1 2)) (> arg1P 2)) (= arg2 arg2P)) (= (+ arg3 1) arg3P)) (= arg4 arg4P))))
    (cfg_trans2 pc f8557_0_bellmanFord_ArrayAccess pc1 f8283_0_bellmanFord_GE (and (and (and (and (and (and (and (and (and (> arg5 (- 1)) (> arg5 arg4)) (<= arg1P arg1)) (<= (- arg1P 2) arg3)) (> arg1 2)) (> arg3 0)) (> arg1P 2)) (= arg2 arg2P)) (= (+ arg4 1) arg3P)) (= arg5 arg4P)))
    (cfg_trans2 pc f8557_0_bellmanFord_ArrayAccess pc1 f8283_0_bellmanFord_GE (and (and (and (and (and (and (and (and (and (and (> arg5 (- 1)) (> arg5 arg2)) (> arg5 arg4)) (<= arg1P arg1)) (<= (- arg1P 2) arg3)) (> arg1 2)) (> arg3 0)) (> arg1P 2)) (= arg2 arg2P)) (= (+ arg4 1) arg3P)) (= arg5 arg4P)))
    (cfg_trans2 pc f8557_0_bellmanFord_ArrayAccess pc1 f8283_0_bellmanFord_GE (exists ((x336 Int)) (and (and (and (and (and (and (and (and (and (and (and (and (> arg5 arg4) (> arg5 arg2)) (> x336 (- 1))) (> arg5 (- 1))) (> x336 arg4)) (<= arg1P arg1)) (<= (- arg1P 2) arg3)) (> arg1 2)) (> arg3 0)) (> arg1P 2)) (= arg2 arg2P)) (= (+ arg4 1) arg3P)) (= arg5 arg4P))))
    (cfg_trans2 pc f8819_0_bellmanFord_GE pc1 f9974_0_relax_ArrayAccess (exists ((x344 Int) (x345 Int)) (and (and (and (and (and (and (and (and (and (and (and (and (and (and (> arg5 arg4) (> arg5 arg3)) (> x344 (- 1))) (> x344 arg4)) (> x345 (- 1))) (> x345 arg4)) (<= arg2P arg1)) (<= (+ arg4P 2) arg1)) (> arg1 2)) (> arg2P 2)) (> arg4P 0)) (= arg2 arg1P)) (= arg3 arg3P)) (= arg4 arg5P)) (= arg5 arg6P))))
    (cfg_trans2 pc f8819_0_bellmanFord_GE pc1 f8819_0_bellmanFord_GE (exists ((x352 Int)) (and (and (and (and (and (and (and (and (and (and (and (> arg5 arg4) (> arg5 arg3)) (> x352 (- 1))) (> arg5 (- 1))) (> x352 arg4)) (<= arg1P arg1)) (> arg1 2)) (> arg1P 2)) (= arg2 arg2P)) (= arg3 arg3P)) (= (+ arg4 1) arg4P)) (= arg5 arg5P))))
    (cfg_trans2 pc f8819_0_bellmanFord_GE pc1 f8819_0_bellmanFord_GE (exists ((x359 Int) (x360 Int)) (and (and (and (and (and (and (and (and (and (and (and (and (and (> arg5 arg4) (> arg5 arg3)) (> x359 (- 1))) (> x359 arg4)) (> x360 (- 1))) (> x360 arg4)) (> arg5 (- 1))) (<= arg1P arg1)) (> arg1 2)) (> arg1P 2)) (= arg2 arg2P)) (= arg3 arg3P)) (= (+ arg4 1) arg4P)) (= arg5 arg5P))))
    (cfg_trans2 pc f8819_0_bellmanFord_GE pc1 f8819_0_bellmanFord_GE (exists ((x367 Int)) (and (and (and (and (and (and (and (and (and (and (and (> arg5 arg4) (> arg5 arg3)) (> x367 (- 1))) (> x367 arg4)) (> arg5 (- 1))) (<= arg1P arg1)) (> arg1 2)) (> arg1P 2)) (= arg2 arg2P)) (= arg3 arg3P)) (= (+ arg4 1) arg4P)) (= arg5 arg5P))))
    (cfg_trans2 pc f9974_0_relax_ArrayAccess pc1 f8819_0_bellmanFord_GE (and (and (and (and (and (and (and (and (and (and (> arg6 (- 1)) (> arg6 arg5)) (<= arg1P arg2)) (<= (- arg1P 2) arg4)) (> arg2 2)) (> arg4 0)) (> arg1P 2)) (= arg1 arg2P)) (= arg3 arg3P)) (= (+ arg5 1) arg4P)) (= arg6 arg5P)))
    (cfg_trans2 pc __init pc1 f1_0_main_Load true)
  )
)
